NAME : portcgen-24-17
COMMENT : portcgen N=24, seed=17
TYPE : TSP
DIMENSION : 24
EDGE_WEIGHT_TYPE : EUC_2D
NODE_COORD_SECTION
1 441057 -219320
2 -122419 -118810
3 344459 211806
4 245519 -92123
5 297212 163420
6 -64275 435042
7 462946 191805
8 -264142 373178
9 145289 184109
10 906 -252368
11 -142791 194893
12 240557 237142
13 -110136 87738
14 -60491 -211359
15 -312881 -270014
16 79539 -352135
17 -1992 87322
18 -335447 -74088
19 -152904 9881
20 -462052 116113
21 331642 226185
22 -411936 -45303
23 -115285 -67839
24 446491 100013
